HORSE = { H1, H2, H3, H4, H5, H6, H7 };
RIDER = { R1, R2, R3, R4, R5, R6, R7, R8 };

speed = [ 10, 9, 8, 7, 6, 5, 7 ];
endur = [ 8, 4, 3, 2, 6, 4, 2, 6];
strength = [ 5, 2, 8, 9, 4, 2, 1, 3];

compatible = [ {R2, R3}, {R5, R6}, { R8}, {R1, R5}, {R4}, {R2, R7}, {R1, R3} ];

n = 4;

%h = [5,1,7,6];
%r = [4,2,3,7]; 